(declare-fun var0 () String)
(assert (str.in.re var0 (re.++ (re.union (re.union (str.to.re "EE") (str.to.re "FF")) (re.+ (str.to.re "G"))) (re.++ (re.* (re.* (str.to.re "DDD"))) (re.++ (re.+ (re.+ (str.to.re "C"))) (re.++ (re.union (re.* (str.to.re "AAA")) (re.* (str.to.re "B"))) (re.++ (re.* (re.+ (str.to.re "zz"))) (re.++ (re.union (re.union (str.to.re "vv") (str.to.re "w")) (re.union (str.to.re "x") (str.to.re "y"))) (re.++ (re.union (re.* (str.to.re "s")) (re.union (str.to.re "ttt") (str.to.re "uuu"))) (re.++ (re.* (re.union (str.to.re "qqq") (str.to.re "r"))) (re.++ (re.+ (re.* (str.to.re "pp"))) (re.++ (re.union (re.+ (str.to.re "n")) (re.+ (str.to.re "ooo"))) (re.++ (re.* (re.* (str.to.re "mmm"))) (re.++ (re.* (re.union (str.to.re "kk") (str.to.re "l"))) (re.++ (re.union (re.union (str.to.re "h") (str.to.re "iii")) (re.* (str.to.re "jj"))) (re.++ (re.+ (re.* (str.to.re "gg"))) (re.++ (re.* (re.* (str.to.re "fff"))) (re.++ (re.* (re.union (str.to.re "d") (str.to.re "ee"))) (re.++ (re.* (re.+ (str.to.re "cc"))) (re.++ (re.* (re.+ (str.to.re "b"))) (re.++ (re.+ (re.* (str.to.re "a"))) (re.++ (re.union (re.+ (str.to.re "888")) (re.* (str.to.re "9"))) (re.++ (re.+ (re.+ (str.to.re "77"))) (re.++ (re.* (re.union (str.to.re "555") (str.to.re "666"))) (re.++ (re.+ (re.union (str.to.re "33") (str.to.re "4"))) (re.++ (re.union (re.+ (str.to.re "1")) (re.+ (str.to.re "22"))) (re.++ (re.+ (re.+ (str.to.re "00"))) (re.++ (re.union (re.* (str.to.re "}}}")) (re.* (str.to.re "~"))) (re.++ (re.union (re.+ (str.to.re "{{")) (re.* (str.to.re "|||"))) (re.++ (re.+ (re.+ (str.to.re "`"))) (re.++ (re.+ (re.union (str.to.re "^^") (str.to.re "__"))) (re.++ (re.+ (re.* (str.to.re "]]]"))) (re.++ (re.+ (re.+ (str.to.re "\\"))) (re.++ (re.union (re.+ (str.to.re "@")) (re.* (str.to.re "[[["))) (re.++ (re.+ (re.* (str.to.re "?"))) (re.++ (re.+ (re.+ (str.to.re ">"))) (re.++ (re.union (re.union (str.to.re ":") (str.to.re ";")) (re.union (str.to.re "<<<") (str.to.re "==="))) (re.++ (re.* (re.+ (str.to.re "//"))) (re.++ (re.+ (re.union (str.to.re "-") (str.to.re "..."))) (re.++ (re.* (re.+ (str.to.re ",,,"))) (re.++ (re.+ (re.* (str.to.re "++"))) (re.++ (re.* (re.* (str.to.re "**"))) (re.++ (re.union (re.union (str.to.re "'''") (str.to.re "(")) (re.+ (str.to.re "))"))) (re.++ (re.* (re.union (str.to.re "%") (str.to.re "&&&"))) (re.++ (re.+ (re.union (str.to.re "#") (str.to.re "$$"))) (re.++ (re.union (re.+ (str.to.re "ZZ")) (re.union (str.to.re "!!!") (str.to.re """"))) (re.++ (re.+ (re.+ (str.to.re "Y"))) (re.++ (re.* (re.* (str.to.re "X"))) (re.++ (re.+ (re.union (str.to.re "VV") (str.to.re "W"))) (re.++ (re.+ (re.* (str.to.re "UUU"))) (re.++ (re.+ (re.* (str.to.re "TTT"))) (re.++ (re.+ (re.union (str.to.re "R") (str.to.re "SSS"))) (re.++ (re.union (re.union (str.to.re "O") (str.to.re "PPP")) (re.* (str.to.re "Q"))) (re.++ (re.+ (re.+ (str.to.re "NNN"))) (re.++ (re.union (re.* (str.to.re "LL")) (re.+ (str.to.re "MM"))) (re.++ (re.union (re.+ (str.to.re "II")) (re.union (str.to.re "J") (str.to.re "KKK"))) (re.++ (re.+ (re.+ (str.to.re "H"))) (re.++ (re.union (re.union (str.to.re "DD") (str.to.re "EE")) (re.union (str.to.re "F") (str.to.re "GG"))) (re.++ (re.* (re.union (str.to.re "BB") (str.to.re "CCC"))) (re.++ (re.union (re.* (str.to.re "zzz")) (re.* (str.to.re "A"))) (re.++ (re.union (re.* (str.to.re "x")) (re.* (str.to.re "y"))) (re.++ (re.union (re.+ (str.to.re "v")) (re.* (str.to.re "www"))) (re.++ (re.+ (re.union (str.to.re "tt") (str.to.re "uuu"))) (re.++ (re.* (re.* (str.to.re "sss"))) (re.++ (re.* (re.* (str.to.re "rrr"))) (re.++ (re.* (re.union (str.to.re "ppp") (str.to.re "qqq"))) (re.++ (re.* (re.+ (str.to.re "o"))) (re.++ (re.+ (re.union (str.to.re "m") (str.to.re "nn"))) (re.++ (re.* (re.* (str.to.re "lll"))) (re.++ (re.+ (re.union (str.to.re "jj") (str.to.re "kkk"))) (re.++ (re.+ (re.+ (str.to.re "iii"))) (re.++ (re.union (re.* (str.to.re "g")) (re.* (str.to.re "h"))) (re.++ (re.* (re.* (str.to.re "ff"))) (re.++ (re.+ (re.union (str.to.re "dd") (str.to.re "eee"))) (re.++ (re.+ (re.+ (str.to.re "c"))) (re.++ (re.union (re.* (str.to.re "aaa")) (re.* (str.to.re "bb"))) (re.++ (re.* (re.+ (str.to.re "999"))) (re.++ (re.union (re.* (str.to.re "66")) (re.union (str.to.re "777") (str.to.re "888"))) (re.++ (re.union (re.union (str.to.re "222") (str.to.re "3")) (re.union (str.to.re "44") (str.to.re "55"))) (re.* (re.union (str.to.re "0") (str.to.re "1"))))))))))))))))))))))))))))))))))))))))))))))))))))))))))))))))))))))))))))))))))
(check-sat)